(set-info :smt-lib-version 2.6)
(set-logic QF_NIA)
(set-info :source |
Generated by: Cristina Borralleras, Daniel Larraz, Albert Oliveras, Enric Rodriguez-Carbonell, Albert Rubio
Generated on: 2017-04-27
Generator: VeryMax
Application: Termination proving
Target solver: barcelogic
|)
(set-info :license "https://creativecommons.org/licenses/by/4.0/")
(set-info :category "industrial")
(set-info :status unsat)
(declare-fun Nl1delta^01 () Int)
(declare-fun Nl1delta_new^01 () Int)
(declare-fun Nl1deltaext^01 () Int)
(declare-fun Nl1deltaext_new^01 () Int)
(declare-fun Nl1wnt^01 () Int)
(declare-fun Nl1wntext^01 () Int)
(declare-fun Nl3delta^01 () Int)
(declare-fun Nl3delta_new^01 () Int)
(declare-fun Nl3deltaext^01 () Int)
(declare-fun Nl3deltaext_new^01 () Int)
(declare-fun Nl3wnt^01 () Int)
(declare-fun Nl3wntext^01 () Int)
(declare-fun lam0n0 () Int)
(declare-fun lam0n1 () Int)
(declare-fun Nl1CT1 () Int)
(declare-fun lam1n0 () Int)
(declare-fun lam1n1 () Int)
(declare-fun Nl3CT1 () Int)
(declare-fun lam2n0 () Int)
(declare-fun lam2n1 () Int)
(declare-fun lam3n0 () Int)
(declare-fun lam3n1 () Int)
(declare-fun lam4n0 () Int)
(declare-fun lam4n1 () Int)
(declare-fun lam5n0 () Int)
(declare-fun lam5n1 () Int)
(declare-fun lam6n0 () Int)
(declare-fun lam6n1 () Int)
(declare-fun lam7n0 () Int)
(declare-fun lam7n1 () Int)
(declare-fun lam8n2 () Int)
(declare-fun lam8n0 () Int)
(declare-fun lam8n1 () Int)
(declare-fun lam9n2 () Int)
(declare-fun lam9n0 () Int)
(declare-fun lam9n1 () Int)
(declare-fun lam10n2 () Int)
(declare-fun lam10n1 () Int)
(declare-fun lam10n0 () Int)
(declare-fun lam11n2 () Int)
(declare-fun lam11n1 () Int)
(declare-fun lam11n0 () Int)
(declare-fun lam12n0 () Int)
(declare-fun lam12n2 () Int)
(declare-fun lam12n1 () Int)
(declare-fun lam13n0 () Int)
(declare-fun lam13n2 () Int)
(declare-fun lam13n1 () Int)
(declare-fun lam14n0 () Int)
(declare-fun lam14n2 () Int)
(declare-fun lam14n1 () Int)
(declare-fun lam15n0 () Int)
(declare-fun lam15n2 () Int)
(declare-fun lam15n1 () Int)
(declare-fun lam16n2 () Int)
(declare-fun lam16n0 () Int)
(declare-fun lam16n1 () Int)
(declare-fun lam17n2 () Int)
(declare-fun lam17n0 () Int)
(declare-fun lam17n1 () Int)
(declare-fun lam18n2 () Int)
(declare-fun lam18n1 () Int)
(declare-fun lam18n0 () Int)
(declare-fun lam19n2 () Int)
(declare-fun lam19n1 () Int)
(declare-fun lam19n0 () Int)
(declare-fun lam20n0 () Int)
(declare-fun lam20n2 () Int)
(declare-fun lam20n1 () Int)
(declare-fun lam21n0 () Int)
(declare-fun lam21n2 () Int)
(declare-fun lam21n1 () Int)
(declare-fun lam22n0 () Int)
(declare-fun lam22n2 () Int)
(declare-fun lam22n1 () Int)
(declare-fun lam23n0 () Int)
(declare-fun lam23n2 () Int)
(declare-fun lam23n1 () Int)
(declare-fun lam24n0 () Int)
(declare-fun lam24n2 () Int)
(declare-fun lam24n1 () Int)
(declare-fun lam25n0 () Int)
(declare-fun lam25n2 () Int)
(declare-fun lam25n1 () Int)
(declare-fun lam26n0 () Int)
(declare-fun lam26n2 () Int)
(declare-fun lam26n1 () Int)
(declare-fun lam27n0 () Int)
(declare-fun lam27n2 () Int)
(declare-fun lam27n1 () Int)
(declare-fun lam28n0 () Int)
(declare-fun lam28n1 () Int)
(declare-fun lam28n2 () Int)
(declare-fun lam29n0 () Int)
(declare-fun lam29n1 () Int)
(declare-fun lam29n2 () Int)
(declare-fun lam30n0 () Int)
(declare-fun lam30n1 () Int)
(declare-fun lam30n2 () Int)
(declare-fun lam31n0 () Int)
(declare-fun lam31n1 () Int)
(declare-fun lam31n2 () Int)
(declare-fun lam32n0 () Int)
(declare-fun lam32n2 () Int)
(declare-fun lam32n1 () Int)
(declare-fun lam33n0 () Int)
(declare-fun lam33n2 () Int)
(declare-fun lam33n1 () Int)
(declare-fun lam34n0 () Int)
(declare-fun lam34n2 () Int)
(declare-fun lam34n1 () Int)
(declare-fun lam35n0 () Int)
(declare-fun lam35n2 () Int)
(declare-fun lam35n1 () Int)
(declare-fun lam36n0 () Int)
(declare-fun lam36n1 () Int)
(declare-fun lam36n2 () Int)
(declare-fun lam37n0 () Int)
(declare-fun lam37n1 () Int)
(declare-fun lam37n2 () Int)
(declare-fun lam38n0 () Int)
(declare-fun lam38n1 () Int)
(declare-fun lam38n2 () Int)
(declare-fun lam39n0 () Int)
(declare-fun lam39n1 () Int)
(declare-fun lam39n2 () Int)
(declare-fun lam40n0 () Int)
(declare-fun lam40n1 () Int)
(declare-fun lam40n2 () Int)
(declare-fun lam40n3 () Int)
(declare-fun lam40n4 () Int)
(declare-fun lam40n5 () Int)
(declare-fun lam40n6 () Int)
(declare-fun lam40n7 () Int)
(declare-fun delta^0 () Int)
(declare-fun deltaext^0 () Int)
(declare-fun wnt^0 () Int)
(declare-fun wntext^0 () Int)
(declare-fun deltext^0 () Int)
(declare-fun delta_new^0 () Int)
(declare-fun deltaext_new^0 () Int)
(declare-fun FV_delta^0_20 () Int)
(declare-fun FV_delta_new^0_20 () Int)
(declare-fun FV_deltaext^0_20 () Int)
(declare-fun FV_deltaext_new^0_20 () Int)
(declare-fun FV_wnt^0_20 () Int)
(declare-fun FV_wntext^0_20 () Int)
(declare-fun lam41n2 () Int)
(declare-fun lam41n0 () Int)
(declare-fun lam41n1 () Int)
(declare-fun FV_delta^0_21 () Int)
(declare-fun FV_delta_new^0_21 () Int)
(declare-fun FV_deltaext^0_21 () Int)
(declare-fun FV_deltaext_new^0_21 () Int)
(declare-fun FV_wnt^0_21 () Int)
(declare-fun FV_wntext^0_21 () Int)
(declare-fun FV_delta^0_22 () Int)
(declare-fun FV_deltaext^0_22 () Int)
(declare-fun FV_wntext^0_22 () Int)
(declare-fun FV_wnt^0_22 () Int)
(declare-fun FV_delta_new^0_22 () Int)
(declare-fun FV_deltaext_new^0_22 () Int)
(assert ( and ( <= ( - 1 ) Nl1delta^01 ) ( <= Nl1delta^01 1 ) ( <= ( - 1 ) Nl1delta_new^01 ) ( <= Nl1delta_new^01 1 ) ( <= ( - 1 ) Nl1deltaext^01 ) ( <= Nl1deltaext^01 1 ) ( <= ( - 1 ) Nl1deltaext_new^01 ) ( <= Nl1deltaext_new^01 1 ) ( <= ( - 1 ) Nl1wnt^01 ) ( <= Nl1wnt^01 1 ) ( <= ( - 1 ) Nl1wntext^01 ) ( <= Nl1wntext^01 1 ) ( <= ( - 1 ) Nl3delta^01 ) ( <= Nl3delta^01 1 ) ( <= ( - 1 ) Nl3delta_new^01 ) ( <= Nl3delta_new^01 1 ) ( <= ( - 1 ) Nl3deltaext^01 ) ( <= Nl3deltaext^01 1 ) ( <= ( - 1 ) Nl3deltaext_new^01 ) ( <= Nl3deltaext_new^01 1 ) ( <= ( - 1 ) Nl3wnt^01 ) ( <= Nl3wnt^01 1 ) ( <= ( - 1 ) Nl3wntext^01 ) ( <= Nl3wntext^01 1 ) ))
(assert ( or ( and ( >= lam0n0 0 ) ( >= lam0n1 0 ) ( > ( + ( * 1 lam0n0 ) ( * Nl1CT1 lam0n1 ) ( - 1 ) ) 0 ) ( = ( + ( * 1 lam0n0 ) ( * Nl1delta^01 lam0n1 ) ) 0 ) ( = ( + ( * ( - 1 ) lam0n0 ) ( * Nl1delta_new^01 lam0n1 ) ) 0 ) ( = ( * Nl1deltaext^01 lam0n1 ) 0 ) ( = ( * Nl1deltaext_new^01 lam0n1 ) 0 ) ( = ( * Nl1wnt^01 lam0n1 ) 0 ) ( = ( * Nl1wntext^01 lam0n1 ) 0 ) ) ( and ( >= lam1n0 0 ) ( >= lam1n1 0 ) ( > ( + ( * 1 lam1n0 ) ( * Nl1CT1 lam1n1 ) ( - 1 ( + ( + Nl3CT1 ( * Nl3delta^01 0 ) ) ( * Nl3deltaext^01 0 ) ) ) ) 0 ) ( = ( + ( * 1 lam1n0 ) ( * Nl1delta^01 lam1n1 ) ) 0 ) ( = ( + ( * ( - 1 ) lam1n0 ) ( * Nl1delta_new^01 lam1n1 ) ( - ( + ( + 0 ( * Nl3delta^01 1 ) ) Nl3delta_new^01 ) ) ) 0 ) ( = ( * Nl1deltaext^01 lam1n1 ) 0 ) ( = ( + ( * Nl1deltaext_new^01 lam1n1 ) ( - ( + ( + 0 ( * Nl3deltaext^01 1 ) ) Nl3deltaext_new^01 ) ) ) 0 ) ( = ( + ( * Nl1wnt^01 lam1n1 ) ( - ( + 0 Nl3wnt^01 ) ) ) 0 ) ( = ( + ( * Nl1wntext^01 lam1n1 ) ( - ( + 0 Nl3wntext^01 ) ) ) 0 ) ) ))
(assert ( or ( and ( >= lam2n0 0 ) ( >= lam2n1 0 ) ( > ( + ( * 1 lam2n0 ) ( * Nl1CT1 lam2n1 ) ( - 1 ) ) 0 ) ( = ( + ( * ( - 1 ) lam2n0 ) ( * Nl1delta^01 lam2n1 ) ) 0 ) ( = ( + ( * 1 lam2n0 ) ( * Nl1delta_new^01 lam2n1 ) ) 0 ) ( = ( * Nl1deltaext^01 lam2n1 ) 0 ) ( = ( * Nl1deltaext_new^01 lam2n1 ) 0 ) ( = ( * Nl1wnt^01 lam2n1 ) 0 ) ( = ( * Nl1wntext^01 lam2n1 ) 0 ) ) ( and ( >= lam3n0 0 ) ( >= lam3n1 0 ) ( > ( + ( * 1 lam3n0 ) ( * Nl1CT1 lam3n1 ) ( - 1 ( + ( + Nl3CT1 ( * Nl3delta^01 0 ) ) ( * Nl3deltaext^01 0 ) ) ) ) 0 ) ( = ( + ( * ( - 1 ) lam3n0 ) ( * Nl1delta^01 lam3n1 ) ) 0 ) ( = ( + ( * 1 lam3n0 ) ( * Nl1delta_new^01 lam3n1 ) ( - ( + ( + 0 ( * Nl3delta^01 1 ) ) Nl3delta_new^01 ) ) ) 0 ) ( = ( * Nl1deltaext^01 lam3n1 ) 0 ) ( = ( + ( * Nl1deltaext_new^01 lam3n1 ) ( - ( + ( + 0 ( * Nl3deltaext^01 1 ) ) Nl3deltaext_new^01 ) ) ) 0 ) ( = ( + ( * Nl1wnt^01 lam3n1 ) ( - ( + 0 Nl3wnt^01 ) ) ) 0 ) ( = ( + ( * Nl1wntext^01 lam3n1 ) ( - ( + 0 Nl3wntext^01 ) ) ) 0 ) ) ))
(assert ( or ( and ( >= lam4n0 0 ) ( >= lam4n1 0 ) ( > ( + ( * 1 lam4n0 ) ( * Nl1CT1 lam4n1 ) ( - 1 ) ) 0 ) ( = ( * Nl1delta^01 lam4n1 ) 0 ) ( = ( * Nl1delta_new^01 lam4n1 ) 0 ) ( = ( + ( * 1 lam4n0 ) ( * Nl1deltaext^01 lam4n1 ) ) 0 ) ( = ( + ( * ( - 1 ) lam4n0 ) ( * Nl1deltaext_new^01 lam4n1 ) ) 0 ) ( = ( * Nl1wnt^01 lam4n1 ) 0 ) ( = ( * Nl1wntext^01 lam4n1 ) 0 ) ) ( and ( >= lam5n0 0 ) ( >= lam5n1 0 ) ( > ( + ( * 1 lam5n0 ) ( * Nl1CT1 lam5n1 ) ( - 1 ( + ( + Nl3CT1 ( * Nl3delta^01 0 ) ) ( * Nl3deltaext^01 0 ) ) ) ) 0 ) ( = ( * Nl1delta^01 lam5n1 ) 0 ) ( = ( + ( * Nl1delta_new^01 lam5n1 ) ( - ( + ( + 0 ( * Nl3delta^01 1 ) ) Nl3delta_new^01 ) ) ) 0 ) ( = ( + ( * 1 lam5n0 ) ( * Nl1deltaext^01 lam5n1 ) ) 0 ) ( = ( + ( * ( - 1 ) lam5n0 ) ( * Nl1deltaext_new^01 lam5n1 ) ( - ( + ( + 0 ( * Nl3deltaext^01 1 ) ) Nl3deltaext_new^01 ) ) ) 0 ) ( = ( + ( * Nl1wnt^01 lam5n1 ) ( - ( + 0 Nl3wnt^01 ) ) ) 0 ) ( = ( + ( * Nl1wntext^01 lam5n1 ) ( - ( + 0 Nl3wntext^01 ) ) ) 0 ) ) ))
(assert ( or ( and ( >= lam6n0 0 ) ( >= lam6n1 0 ) ( > ( + ( * 1 lam6n0 ) ( * Nl1CT1 lam6n1 ) ( - 1 ) ) 0 ) ( = ( * Nl1delta^01 lam6n1 ) 0 ) ( = ( * Nl1delta_new^01 lam6n1 ) 0 ) ( = ( + ( * ( - 1 ) lam6n0 ) ( * Nl1deltaext^01 lam6n1 ) ) 0 ) ( = ( + ( * 1 lam6n0 ) ( * Nl1deltaext_new^01 lam6n1 ) ) 0 ) ( = ( * Nl1wnt^01 lam6n1 ) 0 ) ( = ( * Nl1wntext^01 lam6n1 ) 0 ) ) ( and ( >= lam7n0 0 ) ( >= lam7n1 0 ) ( > ( + ( * 1 lam7n0 ) ( * Nl1CT1 lam7n1 ) ( - 1 ( + ( + Nl3CT1 ( * Nl3delta^01 0 ) ) ( * Nl3deltaext^01 0 ) ) ) ) 0 ) ( = ( * Nl1delta^01 lam7n1 ) 0 ) ( = ( + ( * Nl1delta_new^01 lam7n1 ) ( - ( + ( + 0 ( * Nl3delta^01 1 ) ) Nl3delta_new^01 ) ) ) 0 ) ( = ( + ( * ( - 1 ) lam7n0 ) ( * Nl1deltaext^01 lam7n1 ) ) 0 ) ( = ( + ( * 1 lam7n0 ) ( * Nl1deltaext_new^01 lam7n1 ) ( - ( + ( + 0 ( * Nl3deltaext^01 1 ) ) Nl3deltaext_new^01 ) ) ) 0 ) ( = ( + ( * Nl1wnt^01 lam7n1 ) ( - ( + 0 Nl3wnt^01 ) ) ) 0 ) ( = ( + ( * Nl1wntext^01 lam7n1 ) ( - ( + 0 Nl3wntext^01 ) ) ) 0 ) ) ))
(assert ( or ( and ( >= lam8n2 0 ) ( > ( + ( * ( - 1 ) lam8n0 ) ( * ( - 3 ) lam8n1 ) ( * Nl3CT1 lam8n2 ) ( - 1 ) ) 0 ) ( = ( + ( * 2 lam8n0 ) ( * Nl3delta^01 lam8n2 ) ) 0 ) ( = ( * Nl3delta_new^01 lam8n2 ) 0 ) ( = ( + ( * ( - 1 ) lam8n0 ) ( * 2 lam8n1 ) ( * Nl3deltaext^01 lam8n2 ) ) 0 ) ( = ( * Nl3deltaext_new^01 lam8n2 ) 0 ) ( = ( + ( * ( - 1 ) lam8n1 ) ( * Nl3wnt^01 lam8n2 ) ) 0 ) ( = ( + ( * ( - 1 ) lam8n0 ) ( * Nl3wntext^01 lam8n2 ) ) 0 ) ) ( and ( >= lam9n2 0 ) ( > ( + ( * ( - 1 ) lam9n0 ) ( * ( - 3 ) lam9n1 ) ( * Nl3CT1 lam9n2 ) ( - 1 ( + ( + Nl1CT1 ( * Nl1delta_new^01 0 ) ) ( * Nl1deltaext_new^01 0 ) ) ) ) 0 ) ( = ( + ( * 2 lam9n0 ) ( * Nl3delta^01 lam9n2 ) ( - ( + ( + 0 Nl1delta^01 ) ( * Nl1delta_new^01 1 ) ) ) ) 0 ) ( = ( * Nl3delta_new^01 lam9n2 ) 0 ) ( = ( + ( * ( - 1 ) lam9n0 ) ( * 2 lam9n1 ) ( * Nl3deltaext^01 lam9n2 ) ( - ( + ( + 0 Nl1deltaext^01 ) ( * Nl1deltaext_new^01 1 ) ) ) ) 0 ) ( = ( * Nl3deltaext_new^01 lam9n2 ) 0 ) ( = ( + ( * ( - 1 ) lam9n1 ) ( * Nl3wnt^01 lam9n2 ) ( - ( + 0 Nl1wnt^01 ) ) ) 0 ) ( = ( + ( * ( - 1 ) lam9n0 ) ( * Nl3wntext^01 lam9n2 ) ( - ( + 0 Nl1wntext^01 ) ) ) 0 ) ) ))
(assert ( or ( and ( >= lam10n2 0 ) ( > ( + ( * ( - 3 ) lam10n1 ) ( * Nl3CT1 lam10n2 ) ( - 1 ) ) 0 ) ( = ( + ( * 2 lam10n0 ) ( * Nl3delta^01 lam10n2 ) ) 0 ) ( = ( * Nl3delta_new^01 lam10n2 ) 0 ) ( = ( + ( * ( - 1 ) lam10n0 ) ( * 2 lam10n1 ) ( * Nl3deltaext^01 lam10n2 ) ) 0 ) ( = ( * Nl3deltaext_new^01 lam10n2 ) 0 ) ( = ( + ( * ( - 1 ) lam10n1 ) ( * Nl3wnt^01 lam10n2 ) ) 0 ) ( = ( + ( * ( - 1 ) lam10n0 ) ( * Nl3wntext^01 lam10n2 ) ) 0 ) ) ( and ( >= lam11n2 0 ) ( > ( + ( * ( - 3 ) lam11n1 ) ( * Nl3CT1 lam11n2 ) ( - 1 ( + ( + Nl1CT1 ( * Nl1delta_new^01 0 ) ) ( * Nl1deltaext_new^01 0 ) ) ) ) 0 ) ( = ( + ( * 2 lam11n0 ) ( * Nl3delta^01 lam11n2 ) ( - ( + ( + 0 Nl1delta^01 ) ( * Nl1delta_new^01 1 ) ) ) ) 0 ) ( = ( * Nl3delta_new^01 lam11n2 ) 0 ) ( = ( + ( * ( - 1 ) lam11n0 ) ( * 2 lam11n1 ) ( * Nl3deltaext^01 lam11n2 ) ( - ( + ( + 0 Nl1deltaext^01 ) ( * Nl1deltaext_new^01 1 ) ) ) ) 0 ) ( = ( * Nl3deltaext_new^01 lam11n2 ) 0 ) ( = ( + ( * ( - 1 ) lam11n1 ) ( * Nl3wnt^01 lam11n2 ) ( - ( + 0 Nl1wnt^01 ) ) ) 0 ) ( = ( + ( * ( - 1 ) lam11n0 ) ( * Nl3wntext^01 lam11n2 ) ( - ( + 0 Nl1wntext^01 ) ) ) 0 ) ) ))
(assert ( or ( and ( >= lam12n0 0 ) ( >= lam12n2 0 ) ( > ( + ( * 2 lam12n0 ) ( * ( - 3 ) lam12n1 ) ( * Nl3CT1 lam12n2 ) ( - 1 ) ) 0 ) ( = ( + ( * ( - 2 ) lam12n0 ) ( * Nl3delta^01 lam12n2 ) ) 0 ) ( = ( * Nl3delta_new^01 lam12n2 ) 0 ) ( = ( + ( * 1 lam12n0 ) ( * 2 lam12n1 ) ( * Nl3deltaext^01 lam12n2 ) ) 0 ) ( = ( * Nl3deltaext_new^01 lam12n2 ) 0 ) ( = ( + ( * ( - 1 ) lam12n1 ) ( * Nl3wnt^01 lam12n2 ) ) 0 ) ( = ( + ( * 1 lam12n0 ) ( * Nl3wntext^01 lam12n2 ) ) 0 ) ) ( and ( >= lam13n0 0 ) ( >= lam13n2 0 ) ( > ( + ( * 2 lam13n0 ) ( * ( - 3 ) lam13n1 ) ( * Nl3CT1 lam13n2 ) ( - 1 ( + ( + Nl1CT1 ( * Nl1delta_new^01 ( - 1 ) ) ) ( * Nl1deltaext_new^01 0 ) ) ) ) 0 ) ( = ( + ( * ( - 2 ) lam13n0 ) ( * Nl3delta^01 lam13n2 ) ( - ( + ( + 0 Nl1delta^01 ) ( * Nl1delta_new^01 1 ) ) ) ) 0 ) ( = ( * Nl3delta_new^01 lam13n2 ) 0 ) ( = ( + ( * 1 lam13n0 ) ( * 2 lam13n1 ) ( * Nl3deltaext^01 lam13n2 ) ( - ( + ( + 0 Nl1deltaext^01 ) ( * Nl1deltaext_new^01 1 ) ) ) ) 0 ) ( = ( * Nl3deltaext_new^01 lam13n2 ) 0 ) ( = ( + ( * ( - 1 ) lam13n1 ) ( * Nl3wnt^01 lam13n2 ) ( - ( + 0 Nl1wnt^01 ) ) ) 0 ) ( = ( + ( * 1 lam13n0 ) ( * Nl3wntext^01 lam13n2 ) ( - ( + 0 Nl1wntext^01 ) ) ) 0 ) ) ))
(assert ( or ( and ( >= lam14n0 0 ) ( >= lam14n2 0 ) ( > ( + ( * 1 lam14n0 ) ( * ( - 3 ) lam14n1 ) ( * Nl3CT1 lam14n2 ) ( - 1 ) ) 0 ) ( = ( + ( * 2 lam14n0 ) ( * Nl3delta^01 lam14n2 ) ) 0 ) ( = ( * Nl3delta_new^01 lam14n2 ) 0 ) ( = ( + ( * ( - 1 ) lam14n0 ) ( * 2 lam14n1 ) ( * Nl3deltaext^01 lam14n2 ) ) 0 ) ( = ( * Nl3deltaext_new^01 lam14n2 ) 0 ) ( = ( + ( * ( - 1 ) lam14n1 ) ( * Nl3wnt^01 lam14n2 ) ) 0 ) ( = ( + ( * ( - 1 ) lam14n0 ) ( * Nl3wntext^01 lam14n2 ) ) 0 ) ) ( and ( >= lam15n0 0 ) ( >= lam15n2 0 ) ( > ( + ( * 1 lam15n0 ) ( * ( - 3 ) lam15n1 ) ( * Nl3CT1 lam15n2 ) ( - 1 ( + ( + Nl1CT1 ( * Nl1delta_new^01 1 ) ) ( * Nl1deltaext_new^01 0 ) ) ) ) 0 ) ( = ( + ( * 2 lam15n0 ) ( * Nl3delta^01 lam15n2 ) ( - ( + ( + 0 Nl1delta^01 ) ( * Nl1delta_new^01 1 ) ) ) ) 0 ) ( = ( * Nl3delta_new^01 lam15n2 ) 0 ) ( = ( + ( * ( - 1 ) lam15n0 ) ( * 2 lam15n1 ) ( * Nl3deltaext^01 lam15n2 ) ( - ( + ( + 0 Nl1deltaext^01 ) ( * Nl1deltaext_new^01 1 ) ) ) ) 0 ) ( = ( * Nl3deltaext_new^01 lam15n2 ) 0 ) ( = ( + ( * ( - 1 ) lam15n1 ) ( * Nl3wnt^01 lam15n2 ) ( - ( + 0 Nl1wnt^01 ) ) ) 0 ) ( = ( + ( * ( - 1 ) lam15n0 ) ( * Nl3wntext^01 lam15n2 ) ( - ( + 0 Nl1wntext^01 ) ) ) 0 ) ) ))
(assert ( or ( and ( >= lam16n2 0 ) ( > ( + ( * ( - 1 ) lam16n0 ) ( * ( - 2 ) lam16n1 ) ( * Nl3CT1 lam16n2 ) ( - 1 ) ) 0 ) ( = ( + ( * 2 lam16n0 ) ( * Nl3delta^01 lam16n2 ) ) 0 ) ( = ( * Nl3delta_new^01 lam16n2 ) 0 ) ( = ( + ( * ( - 1 ) lam16n0 ) ( * 2 lam16n1 ) ( * Nl3deltaext^01 lam16n2 ) ) 0 ) ( = ( * Nl3deltaext_new^01 lam16n2 ) 0 ) ( = ( + ( * ( - 1 ) lam16n1 ) ( * Nl3wnt^01 lam16n2 ) ) 0 ) ( = ( + ( * ( - 1 ) lam16n0 ) ( * Nl3wntext^01 lam16n2 ) ) 0 ) ) ( and ( >= lam17n2 0 ) ( > ( + ( * ( - 1 ) lam17n0 ) ( * ( - 2 ) lam17n1 ) ( * Nl3CT1 lam17n2 ) ( - 1 ( + ( + Nl1CT1 ( * Nl1delta_new^01 0 ) ) ( * Nl1deltaext_new^01 0 ) ) ) ) 0 ) ( = ( + ( * 2 lam17n0 ) ( * Nl3delta^01 lam17n2 ) ( - ( + ( + 0 Nl1delta^01 ) ( * Nl1delta_new^01 1 ) ) ) ) 0 ) ( = ( * Nl3delta_new^01 lam17n2 ) 0 ) ( = ( + ( * ( - 1 ) lam17n0 ) ( * 2 lam17n1 ) ( * Nl3deltaext^01 lam17n2 ) ( - ( + ( + 0 Nl1deltaext^01 ) ( * Nl1deltaext_new^01 1 ) ) ) ) 0 ) ( = ( * Nl3deltaext_new^01 lam17n2 ) 0 ) ( = ( + ( * ( - 1 ) lam17n1 ) ( * Nl3wnt^01 lam17n2 ) ( - ( + 0 Nl1wnt^01 ) ) ) 0 ) ( = ( + ( * ( - 1 ) lam17n0 ) ( * Nl3wntext^01 lam17n2 ) ( - ( + 0 Nl1wntext^01 ) ) ) 0 ) ) ))
(assert ( or ( and ( >= lam18n2 0 ) ( > ( + ( * ( - 2 ) lam18n1 ) ( * Nl3CT1 lam18n2 ) ( - 1 ) ) 0 ) ( = ( + ( * 2 lam18n0 ) ( * Nl3delta^01 lam18n2 ) ) 0 ) ( = ( * Nl3delta_new^01 lam18n2 ) 0 ) ( = ( + ( * ( - 1 ) lam18n0 ) ( * 2 lam18n1 ) ( * Nl3deltaext^01 lam18n2 ) ) 0 ) ( = ( * Nl3deltaext_new^01 lam18n2 ) 0 ) ( = ( + ( * ( - 1 ) lam18n1 ) ( * Nl3wnt^01 lam18n2 ) ) 0 ) ( = ( + ( * ( - 1 ) lam18n0 ) ( * Nl3wntext^01 lam18n2 ) ) 0 ) ) ( and ( >= lam19n2 0 ) ( > ( + ( * ( - 2 ) lam19n1 ) ( * Nl3CT1 lam19n2 ) ( - 1 ( + ( + Nl1CT1 ( * Nl1delta_new^01 0 ) ) ( * Nl1deltaext_new^01 0 ) ) ) ) 0 ) ( = ( + ( * 2 lam19n0 ) ( * Nl3delta^01 lam19n2 ) ( - ( + ( + 0 Nl1delta^01 ) ( * Nl1delta_new^01 1 ) ) ) ) 0 ) ( = ( * Nl3delta_new^01 lam19n2 ) 0 ) ( = ( + ( * ( - 1 ) lam19n0 ) ( * 2 lam19n1 ) ( * Nl3deltaext^01 lam19n2 ) ( - ( + ( + 0 Nl1deltaext^01 ) ( * Nl1deltaext_new^01 1 ) ) ) ) 0 ) ( = ( * Nl3deltaext_new^01 lam19n2 ) 0 ) ( = ( + ( * ( - 1 ) lam19n1 ) ( * Nl3wnt^01 lam19n2 ) ( - ( + 0 Nl1wnt^01 ) ) ) 0 ) ( = ( + ( * ( - 1 ) lam19n0 ) ( * Nl3wntext^01 lam19n2 ) ( - ( + 0 Nl1wntext^01 ) ) ) 0 ) ) ))
(assert ( or ( and ( >= lam20n0 0 ) ( >= lam20n2 0 ) ( > ( + ( * 2 lam20n0 ) ( * ( - 2 ) lam20n1 ) ( * Nl3CT1 lam20n2 ) ( - 1 ) ) 0 ) ( = ( + ( * ( - 2 ) lam20n0 ) ( * Nl3delta^01 lam20n2 ) ) 0 ) ( = ( * Nl3delta_new^01 lam20n2 ) 0 ) ( = ( + ( * 1 lam20n0 ) ( * 2 lam20n1 ) ( * Nl3deltaext^01 lam20n2 ) ) 0 ) ( = ( * Nl3deltaext_new^01 lam20n2 ) 0 ) ( = ( + ( * ( - 1 ) lam20n1 ) ( * Nl3wnt^01 lam20n2 ) ) 0 ) ( = ( + ( * 1 lam20n0 ) ( * Nl3wntext^01 lam20n2 ) ) 0 ) ) ( and ( >= lam21n0 0 ) ( >= lam21n2 0 ) ( > ( + ( * 2 lam21n0 ) ( * ( - 2 ) lam21n1 ) ( * Nl3CT1 lam21n2 ) ( - 1 ( + ( + Nl1CT1 ( * Nl1delta_new^01 ( - 1 ) ) ) ( * Nl1deltaext_new^01 0 ) ) ) ) 0 ) ( = ( + ( * ( - 2 ) lam21n0 ) ( * Nl3delta^01 lam21n2 ) ( - ( + ( + 0 Nl1delta^01 ) ( * Nl1delta_new^01 1 ) ) ) ) 0 ) ( = ( * Nl3delta_new^01 lam21n2 ) 0 ) ( = ( + ( * 1 lam21n0 ) ( * 2 lam21n1 ) ( * Nl3deltaext^01 lam21n2 ) ( - ( + ( + 0 Nl1deltaext^01 ) ( * Nl1deltaext_new^01 1 ) ) ) ) 0 ) ( = ( * Nl3deltaext_new^01 lam21n2 ) 0 ) ( = ( + ( * ( - 1 ) lam21n1 ) ( * Nl3wnt^01 lam21n2 ) ( - ( + 0 Nl1wnt^01 ) ) ) 0 ) ( = ( + ( * 1 lam21n0 ) ( * Nl3wntext^01 lam21n2 ) ( - ( + 0 Nl1wntext^01 ) ) ) 0 ) ) ))
(assert ( or ( and ( >= lam22n0 0 ) ( >= lam22n2 0 ) ( > ( + ( * 1 lam22n0 ) ( * ( - 2 ) lam22n1 ) ( * Nl3CT1 lam22n2 ) ( - 1 ) ) 0 ) ( = ( + ( * 2 lam22n0 ) ( * Nl3delta^01 lam22n2 ) ) 0 ) ( = ( * Nl3delta_new^01 lam22n2 ) 0 ) ( = ( + ( * ( - 1 ) lam22n0 ) ( * 2 lam22n1 ) ( * Nl3deltaext^01 lam22n2 ) ) 0 ) ( = ( * Nl3deltaext_new^01 lam22n2 ) 0 ) ( = ( + ( * ( - 1 ) lam22n1 ) ( * Nl3wnt^01 lam22n2 ) ) 0 ) ( = ( + ( * ( - 1 ) lam22n0 ) ( * Nl3wntext^01 lam22n2 ) ) 0 ) ) ( and ( >= lam23n0 0 ) ( >= lam23n2 0 ) ( > ( + ( * 1 lam23n0 ) ( * ( - 2 ) lam23n1 ) ( * Nl3CT1 lam23n2 ) ( - 1 ( + ( + Nl1CT1 ( * Nl1delta_new^01 1 ) ) ( * Nl1deltaext_new^01 0 ) ) ) ) 0 ) ( = ( + ( * 2 lam23n0 ) ( * Nl3delta^01 lam23n2 ) ( - ( + ( + 0 Nl1delta^01 ) ( * Nl1delta_new^01 1 ) ) ) ) 0 ) ( = ( * Nl3delta_new^01 lam23n2 ) 0 ) ( = ( + ( * ( - 1 ) lam23n0 ) ( * 2 lam23n1 ) ( * Nl3deltaext^01 lam23n2 ) ( - ( + ( + 0 Nl1deltaext^01 ) ( * Nl1deltaext_new^01 1 ) ) ) ) 0 ) ( = ( * Nl3deltaext_new^01 lam23n2 ) 0 ) ( = ( + ( * ( - 1 ) lam23n1 ) ( * Nl3wnt^01 lam23n2 ) ( - ( + 0 Nl1wnt^01 ) ) ) 0 ) ( = ( + ( * ( - 1 ) lam23n0 ) ( * Nl3wntext^01 lam23n2 ) ( - ( + 0 Nl1wntext^01 ) ) ) 0 ) ) ))
(assert ( or ( and ( >= lam24n0 0 ) ( >= lam24n2 0 ) ( > ( + ( * 4 lam24n0 ) ( * ( - 1 ) lam24n1 ) ( * Nl3CT1 lam24n2 ) ( - 1 ) ) 0 ) ( = ( + ( * 2 lam24n1 ) ( * Nl3delta^01 lam24n2 ) ) 0 ) ( = ( * Nl3delta_new^01 lam24n2 ) 0 ) ( = ( + ( * ( - 2 ) lam24n0 ) ( * ( - 1 ) lam24n1 ) ( * Nl3deltaext^01 lam24n2 ) ) 0 ) ( = ( * Nl3deltaext_new^01 lam24n2 ) 0 ) ( = ( + ( * 1 lam24n0 ) ( * Nl3wnt^01 lam24n2 ) ) 0 ) ( = ( + ( * ( - 1 ) lam24n1 ) ( * Nl3wntext^01 lam24n2 ) ) 0 ) ) ( and ( >= lam25n0 0 ) ( >= lam25n2 0 ) ( > ( + ( * 4 lam25n0 ) ( * ( - 1 ) lam25n1 ) ( * Nl3CT1 lam25n2 ) ( - 1 ( + ( + Nl1CT1 ( * Nl1delta_new^01 0 ) ) ( * Nl1deltaext_new^01 ( - 1 ) ) ) ) ) 0 ) ( = ( + ( * 2 lam25n1 ) ( * Nl3delta^01 lam25n2 ) ( - ( + ( + 0 Nl1delta^01 ) ( * Nl1delta_new^01 1 ) ) ) ) 0 ) ( = ( * Nl3delta_new^01 lam25n2 ) 0 ) ( = ( + ( * ( - 2 ) lam25n0 ) ( * ( - 1 ) lam25n1 ) ( * Nl3deltaext^01 lam25n2 ) ( - ( + ( + 0 Nl1deltaext^01 ) ( * Nl1deltaext_new^01 1 ) ) ) ) 0 ) ( = ( * Nl3deltaext_new^01 lam25n2 ) 0 ) ( = ( + ( * 1 lam25n0 ) ( * Nl3wnt^01 lam25n2 ) ( - ( + 0 Nl1wnt^01 ) ) ) 0 ) ( = ( + ( * ( - 1 ) lam25n1 ) ( * Nl3wntext^01 lam25n2 ) ( - ( + 0 Nl1wntext^01 ) ) ) 0 ) ) ))
(assert ( or ( and ( >= lam26n0 0 ) ( >= lam26n2 0 ) ( > ( + ( * 4 lam26n0 ) ( * Nl3CT1 lam26n2 ) ( - 1 ) ) 0 ) ( = ( + ( * 2 lam26n1 ) ( * Nl3delta^01 lam26n2 ) ) 0 ) ( = ( * Nl3delta_new^01 lam26n2 ) 0 ) ( = ( + ( * ( - 2 ) lam26n0 ) ( * ( - 1 ) lam26n1 ) ( * Nl3deltaext^01 lam26n2 ) ) 0 ) ( = ( * Nl3deltaext_new^01 lam26n2 ) 0 ) ( = ( + ( * 1 lam26n0 ) ( * Nl3wnt^01 lam26n2 ) ) 0 ) ( = ( + ( * ( - 1 ) lam26n1 ) ( * Nl3wntext^01 lam26n2 ) ) 0 ) ) ( and ( >= lam27n0 0 ) ( >= lam27n2 0 ) ( > ( + ( * 4 lam27n0 ) ( * Nl3CT1 lam27n2 ) ( - 1 ( + ( + Nl1CT1 ( * Nl1delta_new^01 0 ) ) ( * Nl1deltaext_new^01 ( - 1 ) ) ) ) ) 0 ) ( = ( + ( * 2 lam27n1 ) ( * Nl3delta^01 lam27n2 ) ( - ( + ( + 0 Nl1delta^01 ) ( * Nl1delta_new^01 1 ) ) ) ) 0 ) ( = ( * Nl3delta_new^01 lam27n2 ) 0 ) ( = ( + ( * ( - 2 ) lam27n0 ) ( * ( - 1 ) lam27n1 ) ( * Nl3deltaext^01 lam27n2 ) ( - ( + ( + 0 Nl1deltaext^01 ) ( * Nl1deltaext_new^01 1 ) ) ) ) 0 ) ( = ( * Nl3deltaext_new^01 lam27n2 ) 0 ) ( = ( + ( * 1 lam27n0 ) ( * Nl3wnt^01 lam27n2 ) ( - ( + 0 Nl1wnt^01 ) ) ) 0 ) ( = ( + ( * ( - 1 ) lam27n1 ) ( * Nl3wntext^01 lam27n2 ) ( - ( + 0 Nl1wntext^01 ) ) ) 0 ) ) ))
(assert ( or ( and ( >= lam28n0 0 ) ( >= lam28n1 0 ) ( >= lam28n2 0 ) ( > ( + ( * 2 lam28n0 ) ( * 4 lam28n1 ) ( * Nl3CT1 lam28n2 ) ( - 1 ) ) 0 ) ( = ( + ( * ( - 2 ) lam28n0 ) ( * Nl3delta^01 lam28n2 ) ) 0 ) ( = ( * Nl3delta_new^01 lam28n2 ) 0 ) ( = ( + ( * 1 lam28n0 ) ( * ( - 2 ) lam28n1 ) ( * Nl3deltaext^01 lam28n2 ) ) 0 ) ( = ( * Nl3deltaext_new^01 lam28n2 ) 0 ) ( = ( + ( * 1 lam28n1 ) ( * Nl3wnt^01 lam28n2 ) ) 0 ) ( = ( + ( * 1 lam28n0 ) ( * Nl3wntext^01 lam28n2 ) ) 0 ) ) ( and ( >= lam29n0 0 ) ( >= lam29n1 0 ) ( >= lam29n2 0 ) ( > ( + ( * 2 lam29n0 ) ( * 4 lam29n1 ) ( * Nl3CT1 lam29n2 ) ( - 1 ( + ( + Nl1CT1 ( * Nl1delta_new^01 ( - 1 ) ) ) ( * Nl1deltaext_new^01 ( - 1 ) ) ) ) ) 0 ) ( = ( + ( * ( - 2 ) lam29n0 ) ( * Nl3delta^01 lam29n2 ) ( - ( + ( + 0 Nl1delta^01 ) ( * Nl1delta_new^01 1 ) ) ) ) 0 ) ( = ( * Nl3delta_new^01 lam29n2 ) 0 ) ( = ( + ( * 1 lam29n0 ) ( * ( - 2 ) lam29n1 ) ( * Nl3deltaext^01 lam29n2 ) ( - ( + ( + 0 Nl1deltaext^01 ) ( * Nl1deltaext_new^01 1 ) ) ) ) 0 ) ( = ( * Nl3deltaext_new^01 lam29n2 ) 0 ) ( = ( + ( * 1 lam29n1 ) ( * Nl3wnt^01 lam29n2 ) ( - ( + 0 Nl1wnt^01 ) ) ) 0 ) ( = ( + ( * 1 lam29n0 ) ( * Nl3wntext^01 lam29n2 ) ( - ( + 0 Nl1wntext^01 ) ) ) 0 ) ) ))
(assert ( or ( and ( >= lam30n0 0 ) ( >= lam30n1 0 ) ( >= lam30n2 0 ) ( > ( + ( * 1 lam30n0 ) ( * 4 lam30n1 ) ( * Nl3CT1 lam30n2 ) ( - 1 ) ) 0 ) ( = ( + ( * 2 lam30n0 ) ( * Nl3delta^01 lam30n2 ) ) 0 ) ( = ( * Nl3delta_new^01 lam30n2 ) 0 ) ( = ( + ( * ( - 1 ) lam30n0 ) ( * ( - 2 ) lam30n1 ) ( * Nl3deltaext^01 lam30n2 ) ) 0 ) ( = ( * Nl3deltaext_new^01 lam30n2 ) 0 ) ( = ( + ( * 1 lam30n1 ) ( * Nl3wnt^01 lam30n2 ) ) 0 ) ( = ( + ( * ( - 1 ) lam30n0 ) ( * Nl3wntext^01 lam30n2 ) ) 0 ) ) ( and ( >= lam31n0 0 ) ( >= lam31n1 0 ) ( >= lam31n2 0 ) ( > ( + ( * 1 lam31n0 ) ( * 4 lam31n1 ) ( * Nl3CT1 lam31n2 ) ( - 1 ( + ( + Nl1CT1 ( * Nl1delta_new^01 1 ) ) ( * Nl1deltaext_new^01 ( - 1 ) ) ) ) ) 0 ) ( = ( + ( * 2 lam31n0 ) ( * Nl3delta^01 lam31n2 ) ( - ( + ( + 0 Nl1delta^01 ) ( * Nl1delta_new^01 1 ) ) ) ) 0 ) ( = ( * Nl3delta_new^01 lam31n2 ) 0 ) ( = ( + ( * ( - 1 ) lam31n0 ) ( * ( - 2 ) lam31n1 ) ( * Nl3deltaext^01 lam31n2 ) ( - ( + ( + 0 Nl1deltaext^01 ) ( * Nl1deltaext_new^01 1 ) ) ) ) 0 ) ( = ( * Nl3deltaext_new^01 lam31n2 ) 0 ) ( = ( + ( * 1 lam31n1 ) ( * Nl3wnt^01 lam31n2 ) ( - ( + 0 Nl1wnt^01 ) ) ) 0 ) ( = ( + ( * ( - 1 ) lam31n0 ) ( * Nl3wntext^01 lam31n2 ) ( - ( + 0 Nl1wntext^01 ) ) ) 0 ) ) ))
(assert ( or ( and ( >= lam32n0 0 ) ( >= lam32n2 0 ) ( > ( + ( * ( - 1 ) lam32n0 ) ( * ( - 1 ) lam32n1 ) ( * Nl3CT1 lam32n2 ) ( - 1 ) ) 0 ) ( = ( + ( * 2 lam32n1 ) ( * Nl3delta^01 lam32n2 ) ) 0 ) ( = ( * Nl3delta_new^01 lam32n2 ) 0 ) ( = ( + ( * 2 lam32n0 ) ( * ( - 1 ) lam32n1 ) ( * Nl3deltaext^01 lam32n2 ) ) 0 ) ( = ( * Nl3deltaext_new^01 lam32n2 ) 0 ) ( = ( + ( * ( - 1 ) lam32n0 ) ( * Nl3wnt^01 lam32n2 ) ) 0 ) ( = ( + ( * ( - 1 ) lam32n1 ) ( * Nl3wntext^01 lam32n2 ) ) 0 ) ) ( and ( >= lam33n0 0 ) ( >= lam33n2 0 ) ( > ( + ( * ( - 1 ) lam33n0 ) ( * ( - 1 ) lam33n1 ) ( * Nl3CT1 lam33n2 ) ( - 1 ( + ( + Nl1CT1 ( * Nl1delta_new^01 0 ) ) ( * Nl1deltaext_new^01 1 ) ) ) ) 0 ) ( = ( + ( * 2 lam33n1 ) ( * Nl3delta^01 lam33n2 ) ( - ( + ( + 0 Nl1delta^01 ) ( * Nl1delta_new^01 1 ) ) ) ) 0 ) ( = ( * Nl3delta_new^01 lam33n2 ) 0 ) ( = ( + ( * 2 lam33n0 ) ( * ( - 1 ) lam33n1 ) ( * Nl3deltaext^01 lam33n2 ) ( - ( + ( + 0 Nl1deltaext^01 ) ( * Nl1deltaext_new^01 1 ) ) ) ) 0 ) ( = ( * Nl3deltaext_new^01 lam33n2 ) 0 ) ( = ( + ( * ( - 1 ) lam33n0 ) ( * Nl3wnt^01 lam33n2 ) ( - ( + 0 Nl1wnt^01 ) ) ) 0 ) ( = ( + ( * ( - 1 ) lam33n1 ) ( * Nl3wntext^01 lam33n2 ) ( - ( + 0 Nl1wntext^01 ) ) ) 0 ) ) ))
(assert ( or ( and ( >= lam34n0 0 ) ( >= lam34n2 0 ) ( > ( + ( * ( - 1 ) lam34n0 ) ( * Nl3CT1 lam34n2 ) ( - 1 ) ) 0 ) ( = ( + ( * 2 lam34n1 ) ( * Nl3delta^01 lam34n2 ) ) 0 ) ( = ( * Nl3delta_new^01 lam34n2 ) 0 ) ( = ( + ( * 2 lam34n0 ) ( * ( - 1 ) lam34n1 ) ( * Nl3deltaext^01 lam34n2 ) ) 0 ) ( = ( * Nl3deltaext_new^01 lam34n2 ) 0 ) ( = ( + ( * ( - 1 ) lam34n0 ) ( * Nl3wnt^01 lam34n2 ) ) 0 ) ( = ( + ( * ( - 1 ) lam34n1 ) ( * Nl3wntext^01 lam34n2 ) ) 0 ) ) ( and ( >= lam35n0 0 ) ( >= lam35n2 0 ) ( > ( + ( * ( - 1 ) lam35n0 ) ( * Nl3CT1 lam35n2 ) ( - 1 ( + ( + Nl1CT1 ( * Nl1delta_new^01 0 ) ) ( * Nl1deltaext_new^01 1 ) ) ) ) 0 ) ( = ( + ( * 2 lam35n1 ) ( * Nl3delta^01 lam35n2 ) ( - ( + ( + 0 Nl1delta^01 ) ( * Nl1delta_new^01 1 ) ) ) ) 0 ) ( = ( * Nl3delta_new^01 lam35n2 ) 0 ) ( = ( + ( * 2 lam35n0 ) ( * ( - 1 ) lam35n1 ) ( * Nl3deltaext^01 lam35n2 ) ( - ( + ( + 0 Nl1deltaext^01 ) ( * Nl1deltaext_new^01 1 ) ) ) ) 0 ) ( = ( * Nl3deltaext_new^01 lam35n2 ) 0 ) ( = ( + ( * ( - 1 ) lam35n0 ) ( * Nl3wnt^01 lam35n2 ) ( - ( + 0 Nl1wnt^01 ) ) ) 0 ) ( = ( + ( * ( - 1 ) lam35n1 ) ( * Nl3wntext^01 lam35n2 ) ( - ( + 0 Nl1wntext^01 ) ) ) 0 ) ) ))
(assert ( or ( and ( >= lam36n0 0 ) ( >= lam36n1 0 ) ( >= lam36n2 0 ) ( > ( + ( * ( - 1 ) lam36n0 ) ( * 2 lam36n1 ) ( * Nl3CT1 lam36n2 ) ( - 1 ) ) 0 ) ( = ( + ( * ( - 2 ) lam36n1 ) ( * Nl3delta^01 lam36n2 ) ) 0 ) ( = ( * Nl3delta_new^01 lam36n2 ) 0 ) ( = ( + ( * 2 lam36n0 ) ( * 1 lam36n1 ) ( * Nl3deltaext^01 lam36n2 ) ) 0 ) ( = ( * Nl3deltaext_new^01 lam36n2 ) 0 ) ( = ( + ( * ( - 1 ) lam36n0 ) ( * Nl3wnt^01 lam36n2 ) ) 0 ) ( = ( + ( * 1 lam36n1 ) ( * Nl3wntext^01 lam36n2 ) ) 0 ) ) ( and ( >= lam37n0 0 ) ( >= lam37n1 0 ) ( >= lam37n2 0 ) ( > ( + ( * ( - 1 ) lam37n0 ) ( * 2 lam37n1 ) ( * Nl3CT1 lam37n2 ) ( - 1 ( + ( + Nl1CT1 ( * Nl1delta_new^01 ( - 1 ) ) ) ( * Nl1deltaext_new^01 1 ) ) ) ) 0 ) ( = ( + ( * ( - 2 ) lam37n1 ) ( * Nl3delta^01 lam37n2 ) ( - ( + ( + 0 Nl1delta^01 ) ( * Nl1delta_new^01 1 ) ) ) ) 0 ) ( = ( * Nl3delta_new^01 lam37n2 ) 0 ) ( = ( + ( * 2 lam37n0 ) ( * 1 lam37n1 ) ( * Nl3deltaext^01 lam37n2 ) ( - ( + ( + 0 Nl1deltaext^01 ) ( * Nl1deltaext_new^01 1 ) ) ) ) 0 ) ( = ( * Nl3deltaext_new^01 lam37n2 ) 0 ) ( = ( + ( * ( - 1 ) lam37n0 ) ( * Nl3wnt^01 lam37n2 ) ( - ( + 0 Nl1wnt^01 ) ) ) 0 ) ( = ( + ( * 1 lam37n1 ) ( * Nl3wntext^01 lam37n2 ) ( - ( + 0 Nl1wntext^01 ) ) ) 0 ) ) ))
(assert ( or ( and ( >= lam38n0 0 ) ( >= lam38n1 0 ) ( >= lam38n2 0 ) ( > ( + ( * 1 lam38n0 ) ( * ( - 1 ) lam38n1 ) ( * Nl3CT1 lam38n2 ) ( - 1 ) ) 0 ) ( = ( + ( * 2 lam38n0 ) ( * Nl3delta^01 lam38n2 ) ) 0 ) ( = ( * Nl3delta_new^01 lam38n2 ) 0 ) ( = ( + ( * ( - 1 ) lam38n0 ) ( * 2 lam38n1 ) ( * Nl3deltaext^01 lam38n2 ) ) 0 ) ( = ( * Nl3deltaext_new^01 lam38n2 ) 0 ) ( = ( + ( * ( - 1 ) lam38n1 ) ( * Nl3wnt^01 lam38n2 ) ) 0 ) ( = ( + ( * ( - 1 ) lam38n0 ) ( * Nl3wntext^01 lam38n2 ) ) 0 ) ) ( and ( >= lam39n0 0 ) ( >= lam39n1 0 ) ( >= lam39n2 0 ) ( > ( + ( * 1 lam39n0 ) ( * ( - 1 ) lam39n1 ) ( * Nl3CT1 lam39n2 ) ( - 1 ( + ( + Nl1CT1 ( * Nl1delta_new^01 1 ) ) ( * Nl1deltaext_new^01 1 ) ) ) ) 0 ) ( = ( + ( * 2 lam39n0 ) ( * Nl3delta^01 lam39n2 ) ( - ( + ( + 0 Nl1delta^01 ) ( * Nl1delta_new^01 1 ) ) ) ) 0 ) ( = ( * Nl3delta_new^01 lam39n2 ) 0 ) ( = ( + ( * ( - 1 ) lam39n0 ) ( * 2 lam39n1 ) ( * Nl3deltaext^01 lam39n2 ) ( - ( + ( + 0 Nl1deltaext^01 ) ( * Nl1deltaext_new^01 1 ) ) ) ) 0 ) ( = ( * Nl3deltaext_new^01 lam39n2 ) 0 ) ( = ( + ( * ( - 1 ) lam39n1 ) ( * Nl3wnt^01 lam39n2 ) ( - ( + 0 Nl1wnt^01 ) ) ) 0 ) ( = ( + ( * ( - 1 ) lam39n0 ) ( * Nl3wntext^01 lam39n2 ) ( - ( + 0 Nl1wntext^01 ) ) ) 0 ) ) ))
(assert ( <= ( + Nl3CT1 ( * Nl3delta^01 FV_delta^0_20 ) ( * Nl3delta_new^01 FV_delta_new^0_20 ) ( * Nl3deltaext^01 FV_deltaext^0_20 ) ( * Nl3deltaext_new^01 FV_deltaext_new^0_20 ) ( * Nl3wnt^01 FV_wnt^0_20 ) ( * Nl3wntext^01 FV_wntext^0_20 ) ) 0 ))
(assert ( and ( >= lam41n2 0 ) ( > ( + ( * Nl1CT1 lam41n2 ) ( - 1 ) ) 0 ) ( = ( + ( * 1 lam41n0 ) ( * Nl1delta^01 lam41n2 ) ) 0 ) ( = ( + ( * ( - 1 ) lam41n0 ) ( * Nl1delta_new^01 lam41n2 ) ) 0 ) ( = ( + ( * 1 lam41n1 ) ( * Nl1deltaext^01 lam41n2 ) ) 0 ) ( = ( + ( * ( - 1 ) lam41n1 ) ( * Nl1deltaext_new^01 lam41n2 ) ) 0 ) ( = ( * Nl1wnt^01 lam41n2 ) 0 ) ( = ( * Nl1wntext^01 lam41n2 ) 0 ) ))
(assert ( and ( <= ( + Nl1CT1 ( * Nl1delta^01 FV_delta^0_21 ) ( * Nl1delta_new^01 FV_delta_new^0_21 ) ( * Nl1deltaext^01 FV_deltaext^0_21 ) ( * Nl1deltaext_new^01 FV_deltaext_new^0_21 ) ( * Nl1wnt^01 FV_wnt^0_21 ) ( * Nl1wntext^01 FV_wntext^0_21 ) ) 0 ) ( or ( <= ( + 1 FV_delta^0_21 ( * ( - 1 ) FV_delta_new^0_21 ) ) 0 ) ( <= ( + 1 ( * ( - 1 ) FV_delta^0_21 ) FV_delta_new^0_21 ) 0 ) ( <= ( + 1 FV_deltaext^0_21 ( * ( - 1 ) FV_deltaext_new^0_21 ) ) 0 ) ( <= ( + 1 ( * ( - 1 ) FV_deltaext^0_21 ) FV_deltaext_new^0_21 ) 0 ) ) ))
(assert ( and ( <= ( + Nl3CT1 ( * Nl3delta^01 FV_delta^0_22 ) ( * Nl3deltaext^01 FV_deltaext^0_22 ) ( * Nl3wntext^01 FV_wntext^0_22 ) ( * Nl3wnt^01 FV_wnt^0_22 ) ( * Nl3delta_new^01 FV_delta_new^0_22 ) ( * Nl3deltaext_new^01 FV_deltaext_new^0_22 ) ) 0 ) ( or ( and ( = ( + ( - 1 ) ( * 2 FV_delta^0_22 ) ( * ( - 1 ) FV_deltaext^0_22 ) ( * ( - 1 ) FV_wntext^0_22 ) ) 0 ) ( = ( + ( - 3 ) ( * 2 FV_deltaext^0_22 ) ( * ( - 1 ) FV_wnt^0_22 ) ) 0 ) ) ( and ( = ( + ( * 2 FV_delta^0_22 ) ( * ( - 1 ) FV_deltaext^0_22 ) ( * ( - 1 ) FV_wntext^0_22 ) ) 0 ) ( = ( + ( - 3 ) ( * 2 FV_deltaext^0_22 ) ( * ( - 1 ) FV_wnt^0_22 ) ) 0 ) ) ( and ( <= ( + 2 ( * ( - 2 ) FV_delta^0_22 ) FV_deltaext^0_22 FV_wntext^0_22 ) 0 ) ( = ( + ( - 3 ) ( * 2 FV_deltaext^0_22 ) ( * ( - 1 ) FV_wnt^0_22 ) ) 0 ) ) ( and ( <= ( + 1 ( * 2 FV_delta^0_22 ) ( * ( - 1 ) FV_deltaext^0_22 ) ( * ( - 1 ) FV_wntext^0_22 ) ) 0 ) ( = ( + ( - 3 ) ( * 2 FV_deltaext^0_22 ) ( * ( - 1 ) FV_wnt^0_22 ) ) 0 ) ) ( and ( = ( + ( - 1 ) ( * 2 FV_delta^0_22 ) ( * ( - 1 ) FV_deltaext^0_22 ) ( * ( - 1 ) FV_wntext^0_22 ) ) 0 ) ( = ( + ( - 2 ) ( * 2 FV_deltaext^0_22 ) ( * ( - 1 ) FV_wnt^0_22 ) ) 0 ) ) ( and ( = ( + ( * 2 FV_delta^0_22 ) ( * ( - 1 ) FV_deltaext^0_22 ) ( * ( - 1 ) FV_wntext^0_22 ) ) 0 ) ( = ( + ( - 2 ) ( * 2 FV_deltaext^0_22 ) ( * ( - 1 ) FV_wnt^0_22 ) ) 0 ) ) ( and ( <= ( + 2 ( * ( - 2 ) FV_delta^0_22 ) FV_deltaext^0_22 FV_wntext^0_22 ) 0 ) ( = ( + ( - 2 ) ( * 2 FV_deltaext^0_22 ) ( * ( - 1 ) FV_wnt^0_22 ) ) 0 ) ) ( and ( <= ( + 1 ( * 2 FV_delta^0_22 ) ( * ( - 1 ) FV_deltaext^0_22 ) ( * ( - 1 ) FV_wntext^0_22 ) ) 0 ) ( = ( + ( - 2 ) ( * 2 FV_deltaext^0_22 ) ( * ( - 1 ) FV_wnt^0_22 ) ) 0 ) ) ( and ( <= ( + 4 ( * ( - 2 ) FV_deltaext^0_22 ) FV_wnt^0_22 ) 0 ) ( = ( + ( - 1 ) ( * 2 FV_delta^0_22 ) ( * ( - 1 ) FV_deltaext^0_22 ) ( * ( - 1 ) FV_wntext^0_22 ) ) 0 ) ) ( and ( <= ( + 4 ( * ( - 2 ) FV_deltaext^0_22 ) FV_wnt^0_22 ) 0 ) ( = ( + ( * 2 FV_delta^0_22 ) ( * ( - 1 ) FV_deltaext^0_22 ) ( * ( - 1 ) FV_wntext^0_22 ) ) 0 ) ) ( and ( <= ( + 2 ( * ( - 2 ) FV_delta^0_22 ) FV_deltaext^0_22 FV_wntext^0_22 ) 0 ) ( <= ( + 4 ( * ( - 2 ) FV_deltaext^0_22 ) FV_wnt^0_22 ) 0 ) ) ( and ( <= ( + 1 ( * 2 FV_delta^0_22 ) ( * ( - 1 ) FV_deltaext^0_22 ) ( * ( - 1 ) FV_wntext^0_22 ) ) 0 ) ( <= ( + 4 ( * ( - 2 ) FV_deltaext^0_22 ) FV_wnt^0_22 ) 0 ) ) ( and ( <= ( + ( - 1 ) ( * 2 FV_deltaext^0_22 ) ( * ( - 1 ) FV_wnt^0_22 ) ) 0 ) ( = ( + ( - 1 ) ( * 2 FV_delta^0_22 ) ( * ( - 1 ) FV_deltaext^0_22 ) ( * ( - 1 ) FV_wntext^0_22 ) ) 0 ) ) ( and ( <= ( + ( - 1 ) ( * 2 FV_deltaext^0_22 ) ( * ( - 1 ) FV_wnt^0_22 ) ) 0 ) ( = ( + ( * 2 FV_delta^0_22 ) ( * ( - 1 ) FV_deltaext^0_22 ) ( * ( - 1 ) FV_wntext^0_22 ) ) 0 ) ) ( and ( <= ( + ( - 1 ) ( * 2 FV_deltaext^0_22 ) ( * ( - 1 ) FV_wnt^0_22 ) ) 0 ) ( <= ( + 2 ( * ( - 2 ) FV_delta^0_22 ) FV_deltaext^0_22 FV_wntext^0_22 ) 0 ) ) ( and ( <= ( + 1 ( * 2 FV_delta^0_22 ) ( * ( - 1 ) FV_deltaext^0_22 ) ( * ( - 1 ) FV_wntext^0_22 ) ) 0 ) ( <= ( + ( - 1 ) ( * 2 FV_deltaext^0_22 ) ( * ( - 1 ) FV_wnt^0_22 ) ) 0 ) ) ) ))
(check-sat)
(exit)
